<number of tasks>
89

<cycle time>
20

<task times>
1 1
2 2
3 3
4 4
5 5
6 6
7 7
8 8
9 9
10 10
11 1
12 2
13 3
14 4
15 5
16 6
17 7
18 8
19 9
20 10
21 1
22 2
23 3
24 4
25 5
26 6
27 7
28 8
29 9
30 10
31 1
32 2
33 3
34 4
35 5
36 6
37 7
38 8
39 9
40 10
41 1
42 2
43 3
44 4
45 5
46 6
47 7
48 8
49 9
50 10
51 1
52 2
53 3
54 4
55 5
56 6
57 7
58 8
59 9
60 10
61 1
62 2
63 3
64 4
65 5
66 6
67 7
68 8
69 9
70 10
71 1
72 2
73 3
74 4
75 5
76 6
77 7
78 8
79 9
80 10
81 1
82 2
83 3
84 4
85 5
86 6
87 7
88 8
89 9

<precedence relations>
1,2
2,3
3,4
4,5
4,6
4,7
4,8
4,9
5,10
6,11
7,12
8,18
9,18
10,14
11,12
12,13
13,14
14,15
14,16
15,17
16,54
17,18
18,19
18,20
19,22
20,21
20,28
21,54
22,23
23,24
24,25
25,26
25,27
25,29
26,37
27,33
28,29
29,31
30,54
31,32
32,33
33,34
34,35
35,36
35,37
36,38
37,38
38,39
39,40
39,41
39,42
39,43
40,44
41,53
42,53
43,45
44,52
45,46
46,47
47,48
47,49
49,50
50,51
51,52
52,53
53,68
53,69
53,70
53,71
54,55
55,56
56,57
57,58
57,59
57,60
57,61
57,62
57,63
57,64
57,65
57,66
58,67
59,67
60,67
61,67
62,67
63,67
64,67
65,67
66,67
67,73
68,72
69,72
70,72
71,73
72,78
72,80
73,74
74,75
74,76
75,77
76,81
77,78
78,79
79,81
80,81
81,82
81,84
81,85
82,83
83,86
84,86
85,86
86,87
87,88
87,89

<setup times forward>
1,30:2
2,30:2
3,30:2
4,6:2
4,7:2
4,8:1
4,9:1
4,30:2
5,6:2
5,7:2
5,8:1
5,9:1
5,11:2
5,12:2
5,13:2
5,30:2
6,5:2
6,8:1
6,9:1
6,10:2
7,5:2
7,8:1
7,9:1
7,10:2
8,5:1
8,6:1
8,7:1
8,10:1
8,11:1
8,12:1
8,13:1
8,14:1
8,16:1
8,30:1
9,5:1
9,6:1
9,7:1
9,10:1
9,11:1
9,12:1
9,13:1
9,14:1
9,16:1
9,30:1
10,6:2
10,7:2
10,8:1
10,9:1
10,11:2
10,12:2
10,13:2
10,30:2
11,5:2
11,8:1
11,9:1
11,10:2
12,5:2
12,8:1
12,9:1
12,10:2
13,5:2
13,8:1
13,9:1
13,10:2
13,14:2
14,8:1
14,9:1
14,15:1
14,30:2
15,16:1
15,30:1
16,8:1
16,9:1
16,15:1
16,17:1
16,18:1
16,19:1
16,20:1
16,21:1
16,27:2
16,28:1
16,29:1
16,30:2
16,31:1
16,32:1
16,33:2
16,39:1
16,40:2
16,41:1
16,42:1
16,43:1
16,44:2
16,45:1
16,46:2
16,47:2
16,48:2
16,49:2
16,50:2
16,68:2
16,69:1
16,70:1
16,71:1
16,72:2
16,80:2
17,16:1
17,30:1
18,16:1
18,19:2
18,20:2
18,30:1
19,16:1
19,22:1
19,30:3
19,54:1
19,55:1
19,56:1
19,57:1
19,58:3
19,59:1
19,60:1
19,61:1
19,62:1
19,63:3
19,64:3
19,65:1
19,66:1
19,67:3
20,16:1
20,22:1
20,23:1
20,24:1
20,25:1
20,26:1
20,27:3
20,30:3
21,16:1
21,22:1
21,23:1
21,24:1
21,25:1
21,26:1
21,27:3
21,30:3
21,33:3
21,34:1
21,35:1
21,36:1
21,37:1
21,38:1
21,39:2
21,40:1
21,41:2
21,42:2
21,43:2
21,44:3
21,45:2
21,46:3
21,47:3
21,48:3
21,49:1
21,50:1
21,51:1
21,52:1
21,53:1
21,54:1
21,68:3
21,69:2
21,70:2
21,71:2
21,72:3
21,80:3
22,20:1
22,21:1
22,28:1
22,30:2
22,55:2
22,56:2
22,57:2
22,58:2
22,60:2
22,61:2
22,62:2
22,63:2
22,64:2
22,67:2
23,20:1
23,21:1
23,28:1
23,30:2
23,55:2
23,56:2
23,57:2
23,58:2
23,60:2
23,61:2
23,62:2
23,63:2
23,64:2
23,67:2
24,20:1
24,21:1
24,28:1
24,30:2
24,55:2
24,56:2
24,57:2
24,58:2
24,60:2
24,61:2
24,62:2
24,63:2
24,64:2
24,67:2
25,20:1
25,21:1
25,27:2
25,28:1
25,29:1
25,30:2
25,55:2
25,56:2
25,57:2
25,58:2
25,60:2
25,61:2
25,62:2
25,63:2
25,64:2
25,67:2
26,20:1
26,21:1
26,27:2
26,28:1
26,29:1
26,30:2
26,31:1
26,32:1
26,33:2
26,55:2
26,56:2
26,57:2
26,58:2
26,60:2
26,61:2
26,62:2
26,63:2
26,64:2
26,67:2
27,16:2
27,20:3
27,21:3
27,26:2
27,28:3
27,29:3
27,31:3
27,32:3
27,54:2
27,55:4
27,56:4
27,57:4
27,59:2
27,60:4
27,61:4
27,62:4
27,65:2
27,66:2
28,16:1
28,22:1
28,23:1
28,24:1
28,25:1
28,26:1
28,27:3
28,30:3
28,54:1
28,55:1
28,56:1
28,57:1
28,58:3
28,59:1
28,60:1
28,61:1
28,62:1
28,63:3
28,64:3
28,65:1
28,66:1
28,67:3
29,16:1
29,26:1
29,27:3
29,30:3
29,54:1
29,55:1
29,56:1
29,57:1
29,58:3
29,59:1
29,60:1
29,61:1
29,62:1
29,63:3
29,64:3
29,65:1
29,66:1
29,67:3
30,1:2
30,2:2
30,3:2
30,4:2
30,5:2
30,8:1
30,9:1
30,10:2
30,14:2
30,15:1
30,16:2
30,17:1
30,18:1
30,19:3
30,20:3
30,21:3
30,22:2
30,23:2
30,24:2
30,25:2
30,26:2
30,28:3
30,29:3
30,31:3
30,32:3
30,34:2
30,35:2
30,36:2
30,37:2
30,38:2
30,39:1
30,40:4
30,41:1
30,42:1
30,43:1
30,45:1
30,49:4
30,50:4
30,51:2
30,52:2
30,53:2
30,54:2
30,69:1
30,70:1
30,71:1
31,16:1
31,26:1
31,27:3
31,30:3
31,54:1
31,55:1
31,56:1
31,57:1
31,58:3
31,59:1
31,60:1
31,61:1
31,62:1
31,63:3
31,64:3
31,65:1
31,66:1
31,67:3
32,16:1
32,26:1
32,27:3
32,30:3
32,33:3
32,54:1
32,55:1
32,56:1
32,57:1
32,58:3
32,59:1
32,60:1
32,61:1
32,62:1
32,63:3
32,64:3
32,65:1
32,66:1
32,67:3
33,16:2
33,21:3
33,26:2
33,34:2
33,54:2
33,55:4
33,56:4
33,57:4
33,59:2
33,60:4
33,61:4
33,62:4
33,65:2
33,66:2
34,21:1
34,30:2
34,55:2
34,56:2
34,57:2
34,58:2
34,60:2
34,61:2
34,62:2
34,63:2
34,64:2
34,67:2
35,21:1
35,30:2
35,55:2
35,56:2
35,57:2
35,58:2
35,60:2
35,61:2
35,62:2
35,63:2
35,64:2
35,67:2
36,21:1
36,30:2
36,55:2
36,56:2
36,57:2
36,58:2
36,60:2
36,61:2
36,62:2
36,63:2
36,64:2
36,67:2
37,21:1
37,30:2
37,55:2
37,56:2
37,57:2
37,58:2
37,60:2
37,61:2
37,62:2
37,63:2
37,64:2
37,67:2
38,21:1
38,30:2
38,39:1
38,55:2
38,56:2
38,57:2
38,58:2
38,60:2
38,61:2
38,62:2
38,63:2
38,64:2
38,67:2
39,16:1
39,21:2
39,30:1
39,40:3
39,54:1
39,55:3
39,56:3
39,57:3
39,58:1
39,59:1
39,60:3
39,61:3
39,62:3
39,63:1
39,64:1
39,65:1
39,66:1
39,67:1
40,16:2
40,21:1
40,30:4
40,41:3
40,42:3
40,43:3
40,44:4
40,45:3
40,46:4
40,47:4
40,48:4
40,51:2
40,54:2
40,58:4
40,59:2
40,63:4
40,64:4
40,65:2
40,66:2
40,67:4
41,16:1
41,21:2
41,30:1
41,40:3
41,44:1
41,46:1
41,47:1
41,48:1
41,49:3
41,50:3
41,51:1
41,52:1
41,53:1
41,54:1
41,55:3
41,56:3
41,57:3
41,58:1
41,59:1
41,60:3
41,61:3
41,62:3
41,63:1
41,64:1
41,65:1
41,66:1
41,67:1
42,16:1
42,21:2
42,30:1
42,40:3
42,44:1
42,46:1
42,47:1
42,48:1
42,49:3
42,50:3
42,51:1
42,52:1
42,53:1
42,54:1
42,55:3
42,56:3
42,57:3
42,58:1
42,59:1
42,60:3
42,61:3
42,62:3
42,63:1
42,64:1
42,65:1
42,66:1
42,67:1
43,16:1
43,21:2
43,30:1
43,40:3
43,44:1
43,54:1
43,55:3
43,56:3
43,57:3
43,58:1
43,59:1
43,60:3
43,61:3
43,62:3
43,63:1
43,64:1
43,65:1
43,66:1
43,67:1
44,16:2
44,21:3
44,41:1
44,42:1
44,43:1
44,45:1
44,49:4
44,50:4
44,51:2
44,52:2
44,54:2
44,55:4
44,56:4
44,57:4
44,59:2
44,60:4
44,61:4
44,62:4
44,65:2
44,66:2
45,16:1
45,21:2
45,30:1
45,40:3
45,44:1
45,46:1
45,54:1
45,55:3
45,56:3
45,57:3
45,58:1
45,59:1
45,60:3
45,61:3
45,62:3
45,63:1
45,64:1
45,65:1
45,66:1
45,67:1
46,16:2
46,21:3
46,40:4
46,41:1
46,42:1
46,54:2
46,55:4
46,56:4
46,57:4
46,59:2
46,60:4
46,61:4
46,62:4
46,65:2
46,66:2
47,16:2
47,21:3
47,40:4
47,41:1
47,42:1
47,49:4
47,54:2
47,55:4
47,56:4
47,57:4
47,59:2
47,60:4
47,61:4
47,62:4
47,65:2
47,66:2
48,16:2
48,21:3
48,40:4
48,41:1
48,42:1
48,49:4
48,50:4
48,51:2
48,52:2
48,53:2
48,54:2
48,55:4
48,56:4
48,57:4
48,59:2
48,60:4
48,61:4
48,62:4
48,65:2
48,66:2
48,69:1
48,70:1
48,71:1
48,75:3
48,77:3
48,78:3
48,85:2
48,86:2
48,87:2
48,88:2
48,89:2
49,16:2
49,21:1
49,30:4
49,41:3
49,42:3
49,44:4
49,48:4
49,54:2
49,58:4
49,59:2
49,63:4
49,64:4
49,65:2
49,66:2
49,67:4
50,16:2
50,21:1
50,30:4
50,41:3
50,42:3
50,44:4
50,48:4
50,51:2
50,54:2
50,58:4
50,59:2
50,63:4
50,64:4
50,65:2
50,66:2
50,67:4
51,21:1
51,30:2
51,40:2
51,41:1
51,42:1
51,44:2
51,48:2
51,55:2
51,56:2
51,57:2
51,58:2
51,60:2
51,61:2
51,62:2
51,63:2
51,64:2
51,67:2
52,21:1
52,30:2
52,41:1
52,42:1
52,48:2
52,55:2
52,56:2
52,57:2
52,58:2
52,60:2
52,61:2
52,62:2
52,63:2
52,64:2
52,67:2
53,21:1
53,30:2
53,48:2
53,55:2
53,56:2
53,57:2
53,58:2
53,60:2
53,61:2
53,62:2
53,63:2
53,64:2
53,67:2
53,68:2
53,69:1
53,70:1
53,71:1
54,19:1
54,27:2
54,28:1
54,29:1
54,31:1
54,32:1
54,33:2
54,39:1
54,40:2
54,41:1
54,42:1
54,43:1
54,44:2
54,45:1
54,46:2
54,47:2
54,48:2
54,49:2
54,50:2
54,55:2
54,68:2
54,69:1
54,70:1
54,71:1
54,72:2
54,80:2
55,19:1
55,22:2
55,23:2
55,24:2
55,25:2
55,26:2
55,27:4
55,28:1
55,29:1
55,31:1
55,32:1
55,33:4
55,34:2
55,35:2
55,36:2
55,37:2
55,38:2
55,39:3
55,41:3
55,42:3
55,43:3
55,44:4
55,45:3
55,46:4
55,47:4
55,48:4
55,51:2
55,52:2
55,53:2
55,68:4
55,69:3
55,70:3
55,71:3
55,72:4
55,80:4
56,19:1
56,22:2
56,23:2
56,24:2
56,25:2
56,26:2
56,27:4
56,28:1
56,29:1
56,31:1
56,32:1
56,33:4
56,34:2
56,35:2
56,36:2
56,37:2
56,38:2
56,39:3
56,41:3
56,42:3
56,43:3
56,44:4
56,45:3
56,46:4
56,47:4
56,48:4
56,51:2
56,52:2
56,53:2
56,68:4
56,69:3
56,70:3
56,71:3
56,72:4
56,80:4
57,19:1
57,22:2
57,23:2
57,24:2
57,25:2
57,26:2
57,27:4
57,28:1
57,29:1
57,31:1
57,32:1
57,33:4
57,34:2
57,35:2
57,36:2
57,37:2
57,38:2
57,39:3
57,41:3
57,42:3
57,43:3
57,44:4
57,45:3
57,46:4
57,47:4
57,48:4
57,51:2
57,52:2
57,53:2
57,58:4
57,59:2
57,63:4
57,64:4
57,65:2
57,66:2
57,68:4
57,69:3
57,70:3
57,71:3
57,72:4
57,80:4
58,19:3
58,22:2
58,23:2
58,24:2
58,25:2
58,26:2
58,28:3
58,29:3
58,31:3
58,32:3
58,34:2
58,35:2
58,36:2
58,37:2
58,38:2
58,39:1
58,40:4
58,41:1
58,42:1
58,43:1
58,45:1
58,49:4
58,50:4
58,51:2
58,52:2
58,53:2
58,59:2
58,60:4
58,61:4
58,62:4
58,65:2
58,66:2
58,69:1
58,70:1
58,71:1
59,19:1
59,27:2
59,28:1
59,29:1
59,31:1
59,32:1
59,33:2
59,39:1
59,40:2
59,41:1
59,42:1
59,43:1
59,44:2
59,45:1
59,46:2
59,47:2
59,48:2
59,49:2
59,50:2
59,58:2
59,60:2
59,61:2
59,62:2
59,63:2
59,64:2
59,67:2
59,68:2
59,69:1
59,70:1
59,71:1
59,72:2
59,80:2
60,19:1
60,22:2
60,23:2
60,24:2
60,25:2
60,26:2
60,27:4
60,28:1
60,29:1
60,31:1
60,32:1
60,33:4
60,34:2
60,35:2
60,36:2
60,37:2
60,38:2
60,39:3
60,41:3
60,42:3
60,43:3
60,44:4
60,45:3
60,46:4
60,47:4
60,48:4
60,51:2
60,52:2
60,53:2
60,58:4
60,59:2
60,63:4
60,64:4
60,65:2
60,66:2
60,67:4
60,68:4
60,69:3
60,70:3
60,71:3
60,72:4
60,80:4
61,19:1
61,22:2
61,23:2
61,24:2
61,25:2
61,26:2
61,27:4
61,28:1
61,29:1
61,31:1
61,32:1
61,33:4
61,34:2
61,35:2
61,36:2
61,37:2
61,38:2
61,39:3
61,41:3
61,42:3
61,43:3
61,44:4
61,45:3
61,46:4
61,47:4
61,48:4
61,51:2
61,52:2
61,53:2
61,58:4
61,59:2
61,63:4
61,64:4
61,65:2
61,66:2
61,67:4
61,68:4
61,69:3
61,70:3
61,71:3
61,72:4
61,80:4
62,19:1
62,22:2
62,23:2
62,24:2
62,25:2
62,26:2
62,27:4
62,28:1
62,29:1
62,31:1
62,32:1
62,33:4
62,34:2
62,35:2
62,36:2
62,37:2
62,38:2
62,39:3
62,41:3
62,42:3
62,43:3
62,44:4
62,45:3
62,46:4
62,47:4
62,48:4
62,51:2
62,52:2
62,53:2
62,58:4
62,59:2
62,63:4
62,64:4
62,65:2
62,66:2
62,67:4
62,68:4
62,69:3
62,70:3
62,71:3
62,72:4
62,80:4
63,19:3
63,22:2
63,23:2
63,24:2
63,25:2
63,26:2
63,28:3
63,29:3
63,31:3
63,32:3
63,34:2
63,35:2
63,36:2
63,37:2
63,38:2
63,39:1
63,40:4
63,41:1
63,42:1
63,43:1
63,45:1
63,49:4
63,50:4
63,51:2
63,52:2
63,53:2
63,59:2
63,60:4
63,61:4
63,62:4
63,65:2
63,66:2
63,69:1
63,70:1
63,71:1
64,19:3
64,22:2
64,23:2
64,24:2
64,25:2
64,26:2
64,28:3
64,29:3
64,31:3
64,32:3
64,34:2
64,35:2
64,36:2
64,37:2
64,38:2
64,39:1
64,40:4
64,41:1
64,42:1
64,43:1
64,45:1
64,49:4
64,50:4
64,51:2
64,52:2
64,53:2
64,59:2
64,60:4
64,61:4
64,62:4
64,65:2
64,66:2
64,69:1
64,70:1
64,71:1
65,19:1
65,27:2
65,28:1
65,29:1
65,31:1
65,32:1
65,33:2
65,39:1
65,40:2
65,41:1
65,42:1
65,43:1
65,44:2
65,45:1
65,46:2
65,47:2
65,48:2
65,49:2
65,50:2
65,58:2
65,60:2
65,61:2
65,62:2
65,63:2
65,64:2
65,67:2
65,68:2
65,69:1
65,70:1
65,71:1
65,72:2
65,80:2
66,19:1
66,27:2
66,28:1
66,29:1
66,31:1
66,32:1
66,33:2
66,39:1
66,40:2
66,41:1
66,42:1
66,43:1
66,44:2
66,45:1
66,46:2
66,47:2
66,48:2
66,49:2
66,50:2
66,58:2
66,60:2
66,61:2
66,62:2
66,63:2
66,64:2
66,67:2
66,68:2
66,69:1
66,70:1
66,71:1
66,72:2
66,80:2
67,19:3
67,22:2
67,23:2
67,24:2
67,25:2
67,26:2
67,28:3
67,29:3
67,31:3
67,32:3
67,34:2
67,35:2
67,36:2
67,37:2
67,38:2
67,39:1
67,40:4
67,41:1
67,42:1
67,43:1
67,45:1
67,49:4
67,50:4
67,51:2
67,52:2
67,53:2
67,69:1
67,70:1
67,71:1
68,16:2
68,21:3
68,54:2
68,55:4
68,56:4
68,57:4
68,59:2
68,60:4
68,61:4
68,62:4
68,65:2
68,66:2
68,69:1
68,70:1
68,71:1
68,75:3
68,77:3
69,16:1
69,21:2
69,30:1
69,48:1
69,54:1
69,55:3
69,56:3
69,57:3
69,58:1
69,59:1
69,60:3
69,61:3
69,62:3
69,63:1
69,64:1
69,65:1
69,66:1
69,67:1
69,68:1
69,72:1
69,73:1
69,74:1
69,75:2
69,76:1
69,77:2
70,16:1
70,21:2
70,30:1
70,48:1
70,54:1
70,55:3
70,56:3
70,57:3
70,58:1
70,59:1
70,60:3
70,61:3
70,62:3
70,63:1
70,64:1
70,65:1
70,66:1
70,67:1
70,68:1
70,72:1
70,73:1
70,74:1
70,75:2
70,76:1
70,77:2
71,16:1
71,21:2
71,30:1
71,48:1
71,54:1
71,55:3
71,56:3
71,57:3
71,58:1
71,59:1
71,60:3
71,61:3
71,62:3
71,63:1
71,64:1
71,65:1
71,66:1
71,67:1
71,68:1
71,72:1
71,73:1
71,80:1
72,16:2
72,21:3
72,54:2
72,55:4
72,56:4
72,57:4
72,59:2
72,60:4
72,61:4
72,62:4
72,65:2
72,66:2
72,71:1
72,75:3
72,77:3
72,78:3
73,69:1
73,70:1
74,69:1
74,70:1
74,75:3
75,48:3
75,68:3
75,69:2
75,70:2
75,72:3
75,76:3
75,80:3
76,69:1
76,70:1
76,75:3
76,77:3
76,78:3
77,48:3
77,68:3
77,69:2
77,70:2
77,72:3
77,76:3
77,80:3
78,48:3
78,76:3
78,79:3
78,80:3
80,16:2
80,21:3
80,54:2
80,55:4
80,56:4
80,57:4
80,59:2
80,60:4
80,61:4
80,62:4
80,65:2
80,66:2
80,71:1
80,75:3
80,77:3
80,78:3
81,85:2
82,85:2
83,85:2
83,86:2
84,85:2
84,86:2
85,48:2
85,82:2
85,83:2
85,84:2
86,48:2
87,48:2
88,48:2
89,48:2

<setup times backward>
6,1:2
6,2:2
6,3:2
6,4:2
6,5:2
6,8:1
6,9:1
6,10:2
7,1:2
7,2:2
7,3:2
7,4:2
7,5:2
7,8:1
7,9:1
7,10:2
8,1:1
8,2:1
8,3:1
8,4:1
8,5:1
8,10:1
8,14:1
8,16:1
9,1:1
9,2:1
9,3:1
9,4:1
9,5:1
9,10:1
9,14:1
9,16:1
11,1:2
11,2:2
11,3:2
11,4:2
11,5:2
11,8:1
11,9:1
11,10:2
12,1:2
12,2:2
12,3:2
12,4:2
12,5:2
12,8:1
12,9:1
12,10:2
13,1:2
13,2:2
13,3:2
13,4:2
13,5:2
13,8:1
13,9:1
13,10:2
15,1:1
15,2:1
15,3:1
15,4:1
15,5:1
15,10:1
15,14:1
15,16:1
16,19:1
16,20:1
16,21:1
16,28:1
16,29:1
16,31:1
16,32:1
16,40:2
16,49:2
16,50:2
17,1:1
17,2:1
17,3:1
17,4:1
17,5:1
17,10:1
17,14:1
17,16:1
18,1:1
18,2:1
18,3:1
18,4:1
18,5:1
18,10:1
18,14:1
18,16:1
19,55:1
19,56:1
19,57:1
19,60:1
19,61:1
19,62:1
21,40:1
21,49:1
21,50:1
22,19:1
22,20:1
22,21:1
22,28:1
22,55:2
22,56:2
22,57:2
22,60:2
22,61:2
22,62:2
23,19:1
23,20:1
23,21:1
23,28:1
23,55:2
23,56:2
23,57:2
23,60:2
23,61:2
23,62:2
24,19:1
24,20:1
24,21:1
24,28:1
24,55:2
24,56:2
24,57:2
24,60:2
24,61:2
24,62:2
25,19:1
25,20:1
25,21:1
25,28:1
25,55:2
25,56:2
25,57:2
25,60:2
25,61:2
25,62:2
26,19:1
26,20:1
26,21:1
26,28:1
26,29:1
26,31:1
26,32:1
26,55:2
26,56:2
26,57:2
26,60:2
26,61:2
26,62:2
27,1:2
27,2:2
27,3:2
27,4:2
27,5:2
27,8:1
27,9:1
27,10:2
27,14:2
27,15:1
27,16:2
27,17:1
27,18:1
27,19:3
27,20:3
27,21:3
27,22:2
27,23:2
27,24:2
27,25:2
27,26:2
27,28:3
27,29:3
27,31:3
27,32:3
27,54:2
27,55:4
27,56:4
27,57:4
27,59:2
27,60:4
27,61:4
27,62:4
27,65:2
27,66:2
28,55:1
28,56:1
28,57:1
28,60:1
28,61:1
28,62:1
29,55:1
29,56:1
29,57:1
29,60:1
29,61:1
29,62:1
30,1:2
30,2:2
30,3:2
30,4:2
30,5:2
30,8:1
30,9:1
30,10:2
30,14:2
30,15:1
30,16:2
30,17:1
30,18:1
30,19:3
30,20:3
30,21:3
30,22:2
30,23:2
30,24:2
30,25:2
30,26:2
30,28:3
30,29:3
30,31:3
30,32:3
30,34:2
30,35:2
30,36:2
30,37:2
30,38:2
30,39:1
30,40:4
30,41:1
30,42:1
30,43:1
30,45:1
30,49:4
30,50:4
30,51:2
30,52:2
30,53:2
30,69:1
30,70:1
30,71:1
31,55:1
31,56:1
31,57:1
31,60:1
31,61:1
31,62:1
32,55:1
32,56:1
32,57:1
32,60:1
32,61:1
32,62:1
33,1:2
33,2:2
33,3:2
33,4:2
33,5:2
33,8:1
33,9:1
33,10:2
33,14:2
33,15:1
33,16:2
33,17:1
33,18:1
33,19:3
33,20:3
33,21:3
33,22:2
33,23:2
33,24:2
33,25:2
33,26:2
33,28:3
33,29:3
33,31:3
33,32:3
33,54:2
33,55:4
33,56:4
33,57:4
33,59:2
33,60:4
33,61:4
33,62:4
33,65:2
33,66:2
34,19:1
34,20:1
34,21:1
34,28:1
34,29:1
34,31:1
34,32:1
34,55:2
34,56:2
34,57:2
34,60:2
34,61:2
34,62:2
35,19:1
35,20:1
35,21:1
35,28:1
35,29:1
35,31:1
35,32:1
35,55:2
35,56:2
35,57:2
35,60:2
35,61:2
35,62:2
36,19:1
36,20:1
36,21:1
36,28:1
36,29:1
36,31:1
36,32:1
36,55:2
36,56:2
36,57:2
36,60:2
36,61:2
36,62:2
37,19:1
37,20:1
37,21:1
37,28:1
37,29:1
37,31:1
37,32:1
37,55:2
37,56:2
37,57:2
37,60:2
37,61:2
37,62:2
38,19:1
38,20:1
38,21:1
38,28:1
38,29:1
38,31:1
38,32:1
38,55:2
38,56:2
38,57:2
38,60:2
38,61:2
38,62:2
39,1:1
39,2:1
39,3:1
39,4:1
39,5:1
39,10:1
39,14:1
39,16:1
39,19:2
39,20:2
39,21:2
39,22:1
39,23:1
39,24:1
39,25:1
39,26:1
39,28:2
39,29:2
39,31:2
39,32:2
39,34:1
39,35:1
39,36:1
39,37:1
39,38:1
39,54:1
39,55:3
39,56:3
39,57:3
39,59:1
39,60:3
39,61:3
39,62:3
39,65:1
39,66:1
41,1:1
41,2:1
41,3:1
41,4:1
41,5:1
41,10:1
41,14:1
41,16:1
41,19:2
41,20:2
41,21:2
41,22:1
41,23:1
41,24:1
41,25:1
41,26:1
41,28:2
41,29:2
41,31:2
41,32:2
41,34:1
41,35:1
41,36:1
41,37:1
41,38:1
41,40:3
41,49:3
41,50:3
41,51:1
41,52:1
41,54:1
41,55:3
41,56:3
41,57:3
41,59:1
41,60:3
41,61:3
41,62:3
41,65:1
41,66:1
42,1:1
42,2:1
42,3:1
42,4:1
42,5:1
42,10:1
42,14:1
42,16:1
42,19:2
42,20:2
42,21:2
42,22:1
42,23:1
42,24:1
42,25:1
42,26:1
42,28:2
42,29:2
42,31:2
42,32:2
42,34:1
42,35:1
42,36:1
42,37:1
42,38:1
42,40:3
42,49:3
42,50:3
42,51:1
42,52:1
42,54:1
42,55:3
42,56:3
42,57:3
42,59:1
42,60:3
42,61:3
42,62:3
42,65:1
42,66:1
43,1:1
43,2:1
43,3:1
43,4:1
43,5:1
43,10:1
43,14:1
43,16:1
43,19:2
43,20:2
43,21:2
43,22:1
43,23:1
43,24:1
43,25:1
43,26:1
43,28:2
43,29:2
43,31:2
43,32:2
43,34:1
43,35:1
43,36:1
43,37:1
43,38:1
43,40:3
43,54:1
43,55:3
43,56:3
43,57:3
43,59:1
43,60:3
43,61:3
43,62:3
43,65:1
43,66:1
44,1:2
44,2:2
44,3:2
44,4:2
44,5:2
44,8:1
44,9:1
44,10:2
44,14:2
44,15:1
44,16:2
44,17:1
44,18:1
44,19:3
44,20:3
44,21:3
44,22:2
44,23:2
44,24:2
44,25:2
44,26:2
44,28:3
44,29:3
44,31:3
44,32:3
44,34:2
44,35:2
44,36:2
44,37:2
44,38:2
44,39:1
44,40:4
44,41:1
44,42:1
44,43:1
44,45:1
44,49:4
44,50:4
44,51:2
44,54:2
44,55:4
44,56:4
44,57:4
44,59:2
44,60:4
44,61:4
44,62:4
44,65:2
44,66:2
45,1:1
45,2:1
45,3:1
45,4:1
45,5:1
45,10:1
45,14:1
45,16:1
45,19:2
45,20:2
45,21:2
45,22:1
45,23:1
45,24:1
45,25:1
45,26:1
45,28:2
45,29:2
45,31:2
45,32:2
45,34:1
45,35:1
45,36:1
45,37:1
45,38:1
45,40:3
45,54:1
45,55:3
45,56:3
45,57:3
45,59:1
45,60:3
45,61:3
45,62:3
45,65:1
45,66:1
46,1:2
46,2:2
46,3:2
46,4:2
46,5:2
46,8:1
46,9:1
46,10:2
46,14:2
46,15:1
46,16:2
46,17:1
46,18:1
46,19:3
46,20:3
46,21:3
46,22:2
46,23:2
46,24:2
46,25:2
46,26:2
46,28:3
46,29:3
46,31:3
46,32:3
46,34:2
46,35:2
46,36:2
46,37:2
46,38:2
46,39:1
46,40:4
46,41:1
46,42:1
46,43:1
46,45:1
46,54:2
46,55:4
46,56:4
46,57:4
46,59:2
46,60:4
46,61:4
46,62:4
46,65:2
46,66:2
47,1:2
47,2:2
47,3:2
47,4:2
47,5:2
47,8:1
47,9:1
47,10:2
47,14:2
47,15:1
47,16:2
47,17:1
47,18:1
47,19:3
47,20:3
47,21:3
47,22:2
47,23:2
47,24:2
47,25:2
47,26:2
47,28:3
47,29:3
47,31:3
47,32:3
47,34:2
47,35:2
47,36:2
47,37:2
47,38:2
47,39:1
47,40:4
47,41:1
47,42:1
47,43:1
47,45:1
47,54:2
47,55:4
47,56:4
47,57:4
47,59:2
47,60:4
47,61:4
47,62:4
47,65:2
47,66:2
48,1:2
48,2:2
48,3:2
48,4:2
48,5:2
48,8:1
48,9:1
48,10:2
48,14:2
48,15:1
48,16:2
48,17:1
48,18:1
48,19:3
48,20:3
48,21:3
48,22:2
48,23:2
48,24:2
48,25:2
48,26:2
48,28:3
48,29:3
48,31:3
48,32:3
48,34:2
48,35:2
48,36:2
48,37:2
48,38:2
48,39:1
48,40:4
48,41:1
48,42:1
48,43:1
48,45:1
48,49:4
48,50:4
48,51:2
48,52:2
48,53:2
48,54:2
48,55:4
48,56:4
48,57:4
48,59:2
48,60:4
48,61:4
48,62:4
48,65:2
48,66:2
48,69:1
48,70:1
48,71:1
48,75:3
48,77:3
48,78:3
48,85:2
48,86:2
48,87:2
48,88:2
48,89:2
51,19:1
51,20:1
51,21:1
51,28:1
51,29:1
51,31:1
51,32:1
51,40:2
51,49:2
51,50:2
51,55:2
51,56:2
51,57:2
51,60:2
51,61:2
51,62:2
52,19:1
52,20:1
52,21:1
52,28:1
52,29:1
52,31:1
52,32:1
52,40:2
52,49:2
52,50:2
52,55:2
52,56:2
52,57:2
52,60:2
52,61:2
52,62:2
53,19:1
53,20:1
53,21:1
53,28:1
53,29:1
53,31:1
53,32:1
53,40:2
53,49:2
53,50:2
53,55:2
53,56:2
53,57:2
53,60:2
53,61:2
53,62:2
54,19:1
54,20:1
54,21:1
54,28:1
54,29:1
54,31:1
54,32:1
54,40:2
54,49:2
54,50:2
58,1:2
58,2:2
58,3:2
58,4:2
58,5:2
58,8:1
58,9:1
58,10:2
58,14:2
58,15:1
58,16:2
58,17:1
58,18:1
58,19:3
58,20:3
58,21:3
58,22:2
58,23:2
58,24:2
58,25:2
58,26:2
58,28:3
58,29:3
58,31:3
58,32:3
58,34:2
58,35:2
58,36:2
58,37:2
58,38:2
58,39:1
58,40:4
58,41:1
58,42:1
58,43:1
58,45:1
58,49:4
58,50:4
58,51:2
58,52:2
58,53:2
58,54:2
58,55:4
58,56:4
58,57:4
58,59:2
58,60:4
58,61:4
58,62:4
58,65:2
58,66:2
58,69:1
58,70:1
58,71:1
59,19:1
59,20:1
59,21:1
59,28:1
59,29:1
59,31:1
59,32:1
59,40:2
59,49:2
59,50:2
59,55:2
59,56:2
59,57:2
59,60:2
59,61:2
59,62:2
63,1:2
63,2:2
63,3:2
63,4:2
63,5:2
63,8:1
63,9:1
63,10:2
63,14:2
63,15:1
63,16:2
63,17:1
63,18:1
63,19:3
63,20:3
63,21:3
63,22:2
63,23:2
63,24:2
63,25:2
63,26:2
63,28:3
63,29:3
63,31:3
63,32:3
63,34:2
63,35:2
63,36:2
63,37:2
63,38:2
63,39:1
63,40:4
63,41:1
63,42:1
63,43:1
63,45:1
63,49:4
63,50:4
63,51:2
63,52:2
63,53:2
63,54:2
63,55:4
63,56:4
63,57:4
63,59:2
63,60:4
63,61:4
63,62:4
63,65:2
63,66:2
63,69:1
63,70:1
63,71:1
64,1:2
64,2:2
64,3:2
64,4:2
64,5:2
64,8:1
64,9:1
64,10:2
64,14:2
64,15:1
64,16:2
64,17:1
64,18:1
64,19:3
64,20:3
64,21:3
64,22:2
64,23:2
64,24:2
64,25:2
64,26:2
64,28:3
64,29:3
64,31:3
64,32:3
64,34:2
64,35:2
64,36:2
64,37:2
64,38:2
64,39:1
64,40:4
64,41:1
64,42:1
64,43:1
64,45:1
64,49:4
64,50:4
64,51:2
64,52:2
64,53:2
64,54:2
64,55:4
64,56:4
64,57:4
64,59:2
64,60:4
64,61:4
64,62:4
64,65:2
64,66:2
64,69:1
64,70:1
64,71:1
65,19:1
65,20:1
65,21:1
65,28:1
65,29:1
65,31:1
65,32:1
65,40:2
65,49:2
65,50:2
65,55:2
65,56:2
65,57:2
65,60:2
65,61:2
65,62:2
66,19:1
66,20:1
66,21:1
66,28:1
66,29:1
66,31:1
66,32:1
66,40:2
66,49:2
66,50:2
66,55:2
66,56:2
66,57:2
66,60:2
66,61:2
66,62:2
67,1:2
67,2:2
67,3:2
67,4:2
67,5:2
67,8:1
67,9:1
67,10:2
67,14:2
67,15:1
67,16:2
67,17:1
67,18:1
67,19:3
67,20:3
67,21:3
67,22:2
67,23:2
67,24:2
67,25:2
67,26:2
67,28:3
67,29:3
67,31:3
67,32:3
67,34:2
67,35:2
67,36:2
67,37:2
67,38:2
67,39:1
67,40:4
67,41:1
67,42:1
67,43:1
67,45:1
67,49:4
67,50:4
67,51:2
67,52:2
67,53:2
67,54:2
67,55:4
67,56:4
67,57:4
67,59:2
67,60:4
67,61:4
67,62:4
67,65:2
67,66:2
67,69:1
67,70:1
67,71:1
68,1:2
68,2:2
68,3:2
68,4:2
68,5:2
68,8:1
68,9:1
68,10:2
68,14:2
68,15:1
68,16:2
68,17:1
68,18:1
68,19:3
68,20:3
68,21:3
68,22:2
68,23:2
68,24:2
68,25:2
68,26:2
68,28:3
68,29:3
68,31:3
68,32:3
68,34:2
68,35:2
68,36:2
68,37:2
68,38:2
68,39:1
68,40:4
68,41:1
68,42:1
68,43:1
68,45:1
68,49:4
68,50:4
68,51:2
68,52:2
68,53:2
68,54:2
68,55:4
68,56:4
68,57:4
68,59:2
68,60:4
68,61:4
68,62:4
68,65:2
68,66:2
68,69:1
68,70:1
68,71:1
68,75:3
68,77:3
69,1:1
69,2:1
69,3:1
69,4:1
69,5:1
69,10:1
69,14:1
69,16:1
69,19:2
69,20:2
69,21:2
69,22:1
69,23:1
69,24:1
69,25:1
69,26:1
69,28:2
69,29:2
69,31:2
69,32:2
69,34:1
69,35:1
69,36:1
69,37:1
69,38:1
69,40:3
69,49:3
69,50:3
69,51:1
69,52:1
69,53:1
69,54:1
69,55:3
69,56:3
69,57:3
69,59:1
69,60:3
69,61:3
69,62:3
69,65:1
69,66:1
69,75:2
69,77:2
70,1:1
70,2:1
70,3:1
70,4:1
70,5:1
70,10:1
70,14:1
70,16:1
70,19:2
70,20:2
70,21:2
70,22:1
70,23:1
70,24:1
70,25:1
70,26:1
70,28:2
70,29:2
70,31:2
70,32:2
70,34:1
70,35:1
70,36:1
70,37:1
70,38:1
70,40:3
70,49:3
70,50:3
70,51:1
70,52:1
70,53:1
70,54:1
70,55:3
70,56:3
70,57:3
70,59:1
70,60:3
70,61:3
70,62:3
70,65:1
70,66:1
70,75:2
70,77:2
71,1:1
71,2:1
71,3:1
71,4:1
71,5:1
71,10:1
71,14:1
71,16:1
71,19:2
71,20:2
71,21:2
71,22:1
71,23:1
71,24:1
71,25:1
71,26:1
71,28:2
71,29:2
71,31:2
71,32:2
71,34:1
71,35:1
71,36:1
71,37:1
71,38:1
71,40:3
71,49:3
71,50:3
71,51:1
71,52:1
71,53:1
71,54:1
71,55:3
71,56:3
71,57:3
71,59:1
71,60:3
71,61:3
71,62:3
71,65:1
71,66:1
72,1:2
72,2:2
72,3:2
72,4:2
72,5:2
72,8:1
72,9:1
72,10:2
72,14:2
72,15:1
72,16:2
72,17:1
72,18:1
72,19:3
72,20:3
72,21:3
72,22:2
72,23:2
72,24:2
72,25:2
72,26:2
72,28:3
72,29:3
72,31:3
72,32:3
72,34:2
72,35:2
72,36:2
72,37:2
72,38:2
72,39:1
72,40:4
72,41:1
72,42:1
72,43:1
72,45:1
72,49:4
72,50:4
72,51:2
72,52:2
72,53:2
72,54:2
72,55:4
72,56:4
72,57:4
72,59:2
72,60:4
72,61:4
72,62:4
72,65:2
72,66:2
72,69:1
72,70:1
72,71:1
72,75:3
72,77:3
73,1:2
73,2:2
73,3:2
73,4:2
73,5:2
73,8:1
73,9:1
73,10:2
73,14:2
73,15:1
73,16:2
73,17:1
73,18:1
73,19:3
73,20:3
73,21:3
73,22:2
73,23:2
73,24:2
73,25:2
73,26:2
73,28:3
73,29:3
73,31:3
73,32:3
73,34:2
73,35:2
73,36:2
73,37:2
73,38:2
73,39:1
73,40:4
73,41:1
73,42:1
73,43:1
73,45:1
73,49:4
73,50:4
73,51:2
73,52:2
73,53:2
73,54:2
73,55:4
73,56:4
73,57:4
73,59:2
73,60:4
73,61:4
73,62:4
73,65:2
73,66:2
73,69:1
73,70:1
73,71:1
74,1:2
74,2:2
74,3:2
74,4:2
74,5:2
74,8:1
74,9:1
74,10:2
74,14:2
74,15:1
74,16:2
74,17:1
74,18:1
74,19:3
74,20:3
74,21:3
74,22:2
74,23:2
74,24:2
74,25:2
74,26:2
74,28:3
74,29:3
74,31:3
74,32:3
74,34:2
74,35:2
74,36:2
74,37:2
74,38:2
74,39:1
74,40:4
74,41:1
74,42:1
74,43:1
74,45:1
74,49:4
74,50:4
74,51:2
74,52:2
74,53:2
74,54:2
74,55:4
74,56:4
74,57:4
74,59:2
74,60:4
74,61:4
74,62:4
74,65:2
74,66:2
74,69:1
74,70:1
74,71:1
75,40:1
75,49:1
75,50:1
75,55:1
75,56:1
75,57:1
75,60:1
75,61:1
75,62:1
76,1:2
76,2:2
76,3:2
76,4:2
76,5:2
76,8:1
76,9:1
76,10:2
76,14:2
76,15:1
76,16:2
76,17:1
76,18:1
76,19:3
76,20:3
76,21:3
76,22:2
76,23:2
76,24:2
76,25:2
76,26:2
76,28:3
76,29:3
76,31:3
76,32:3
76,34:2
76,35:2
76,36:2
76,37:2
76,38:2
76,39:1
76,40:4
76,41:1
76,42:1
76,43:1
76,45:1
76,49:4
76,50:4
76,51:2
76,52:2
76,53:2
76,54:2
76,55:4
76,56:4
76,57:4
76,59:2
76,60:4
76,61:4
76,62:4
76,65:2
76,66:2
76,69:1
76,70:1
76,71:1
76,75:3
76,77:3
76,78:3
77,40:1
77,49:1
77,50:1
77,55:1
77,56:1
77,57:1
77,60:1
77,61:1
77,62:1
78,40:1
78,49:1
78,50:1
78,55:1
78,56:1
78,57:1
78,60:1
78,61:1
78,62:1
79,1:2
79,2:2
79,3:2
79,4:2
79,5:2
79,8:1
79,9:1
79,10:2
79,14:2
79,15:1
79,16:2
79,17:1
79,18:1
79,19:3
79,20:3
79,21:3
79,22:2
79,23:2
79,24:2
79,25:2
79,26:2
79,28:3
79,29:3
79,31:3
79,32:3
79,34:2
79,35:2
79,36:2
79,37:2
79,38:2
79,39:1
79,40:4
79,41:1
79,42:1
79,43:1
79,45:1
79,49:4
79,50:4
79,51:2
79,52:2
79,53:2
79,54:2
79,55:4
79,56:4
79,57:4
79,59:2
79,60:4
79,61:4
79,62:4
79,65:2
79,66:2
79,69:1
79,70:1
79,71:1
79,75:3
79,77:3
79,78:3
80,1:2
80,2:2
80,3:2
80,4:2
80,5:2
80,8:1
80,9:1
80,10:2
80,14:2
80,15:1
80,16:2
80,17:1
80,18:1
80,19:3
80,20:3
80,21:3
80,22:2
80,23:2
80,24:2
80,25:2
80,26:2
80,28:3
80,29:3
80,31:3
80,32:3
80,34:2
80,35:2
80,36:2
80,37:2
80,38:2
80,39:1
80,40:4
80,41:1
80,42:1
80,43:1
80,45:1
80,49:4
80,50:4
80,51:2
80,52:2
80,53:2
80,54:2
80,55:4
80,56:4
80,57:4
80,59:2
80,60:4
80,61:4
80,62:4
80,65:2
80,66:2
80,69:1
80,70:1
80,71:1
80,75:3
80,77:3
80,78:3
81,1:2
81,2:2
81,3:2
81,4:2
81,5:2
81,8:1
81,9:1
81,10:2
81,14:2
81,15:1
81,16:2
81,17:1
81,18:1
81,19:3
81,20:3
81,21:3
81,22:2
81,23:2
81,24:2
81,25:2
81,26:2
81,28:3
81,29:3
81,31:3
81,32:3
81,34:2
81,35:2
81,36:2
81,37:2
81,38:2
81,39:1
81,40:4
81,41:1
81,42:1
81,43:1
81,45:1
81,49:4
81,50:4
81,51:2
81,52:2
81,53:2
81,54:2
81,55:4
81,56:4
81,57:4
81,59:2
81,60:4
81,61:4
81,62:4
81,65:2
81,66:2
81,69:1
81,70:1
81,71:1
81,75:3
81,77:3
81,78:3
82,1:2
82,2:2
82,3:2
82,4:2
82,5:2
82,8:1
82,9:1
82,10:2
82,14:2
82,15:1
82,16:2
82,17:1
82,18:1
82,19:3
82,20:3
82,21:3
82,22:2
82,23:2
82,24:2
82,25:2
82,26:2
82,28:3
82,29:3
82,31:3
82,32:3
82,34:2
82,35:2
82,36:2
82,37:2
82,38:2
82,39:1
82,40:4
82,41:1
82,42:1
82,43:1
82,45:1
82,49:4
82,50:4
82,51:2
82,52:2
82,53:2
82,54:2
82,55:4
82,56:4
82,57:4
82,59:2
82,60:4
82,61:4
82,62:4
82,65:2
82,66:2
82,69:1
82,70:1
82,71:1
82,75:3
82,77:3
82,78:3
82,85:2
83,1:2
83,2:2
83,3:2
83,4:2
83,5:2
83,8:1
83,9:1
83,10:2
83,14:2
83,15:1
83,16:2
83,17:1
83,18:1
83,19:3
83,20:3
83,21:3
83,22:2
83,23:2
83,24:2
83,25:2
83,26:2
83,28:3
83,29:3
83,31:3
83,32:3
83,34:2
83,35:2
83,36:2
83,37:2
83,38:2
83,39:1
83,40:4
83,41:1
83,42:1
83,43:1
83,45:1
83,49:4
83,50:4
83,51:2
83,52:2
83,53:2
83,54:2
83,55:4
83,56:4
83,57:4
83,59:2
83,60:4
83,61:4
83,62:4
83,65:2
83,66:2
83,69:1
83,70:1
83,71:1
83,75:3
83,77:3
83,78:3
83,85:2
84,1:2
84,2:2
84,3:2
84,4:2
84,5:2
84,8:1
84,9:1
84,10:2
84,14:2
84,15:1
84,16:2
84,17:1
84,18:1
84,19:3
84,20:3
84,21:3
84,22:2
84,23:2
84,24:2
84,25:2
84,26:2
84,28:3
84,29:3
84,31:3
84,32:3
84,34:2
84,35:2
84,36:2
84,37:2
84,38:2
84,39:1
84,40:4
84,41:1
84,42:1
84,43:1
84,45:1
84,49:4
84,50:4
84,51:2
84,52:2
84,53:2
84,54:2
84,55:4
84,56:4
84,57:4
84,59:2
84,60:4
84,61:4
84,62:4
84,65:2
84,66:2
84,69:1
84,70:1
84,71:1
84,75:3
84,77:3
84,78:3
84,85:2
85,19:1
85,20:1
85,21:1
85,28:1
85,29:1
85,31:1
85,32:1
85,40:2
85,49:2
85,50:2
85,55:2
85,56:2
85,57:2
85,60:2
85,61:2
85,62:2
85,75:1
85,77:1
85,78:1
86,19:1
86,20:1
86,21:1
86,28:1
86,29:1
86,31:1
86,32:1
86,40:2
86,49:2
86,50:2
86,55:2
86,56:2
86,57:2
86,60:2
86,61:2
86,62:2
86,75:1
86,77:1
86,78:1
87,19:1
87,20:1
87,21:1
87,28:1
87,29:1
87,31:1
87,32:1
87,40:2
87,49:2
87,50:2
87,55:2
87,56:2
87,57:2
87,60:2
87,61:2
87,62:2
87,75:1
87,77:1
87,78:1
88,19:1
88,20:1
88,21:1
88,28:1
88,29:1
88,31:1
88,32:1
88,40:2
88,49:2
88,50:2
88,55:2
88,56:2
88,57:2
88,60:2
88,61:2
88,62:2
88,75:1
88,77:1
88,78:1
89,19:1
89,20:1
89,21:1
89,28:1
89,29:1
89,31:1
89,32:1
89,40:2
89,49:2
89,50:2
89,55:2
89,56:2
89,57:2
89,60:2
89,61:2
89,62:2
89,75:1
89,77:1
89,78:1

<end>

<optimal SALBP-1 value>
25


<rand seed>
467321153

